
ASes= { 1, 2, 3, 4, 5, 6, 7, 8, 9, 10, 11 } ;


Objects= { 1, 2, 3, 4, 5, 6, 7, 8, 9, 10, 11, 12, 13, 14, 15, 16, 17, 18, 19, 20, 21, 22, 23, 24, 25, 26, 27, 28, 29, 30, 31, 32, 33, 34, 35, 36, 37, 38, 39, 40, 41, 42, 43, 44, 45, 46, 47, 48, 49, 50, 51, 52, 53, 54, 55, 56, 57, 58, 59, 60, 61, 62, 63, 64, 65, 66, 67, 68, 69, 70, 71, 72, 73, 74, 75, 76, 77, 78, 79, 80, 81, 82, 83, 84, 85, 86, 87, 88, 89, 90, 91, 92, 93, 94, 95, 96, 97, 98, 99, 100 } ;


QualityLevels= { 0, 1, 2, 3, 4, 5 } ;

Arcs = {<2,1,490000>, <1,2,490000>, <11,1,490000>, <1,11,490000>, <11,2,490000>, <2,11,490000>, <11,10,490000>, <10,11,490000>, <3,2,490000>, <2,3,490000>, <4,3,490000>, <3,4,490000>, <5,4,490000>, <4,5,490000>, <6,5,490000>, <5,6,490000>, <7,6,490000>, <6,7,490000>, <8,4,490000>, <4,8,490000>, <8,7,490000>, <7,8,490000>, <9,3,490000>, <3,9,490000>, <9,8,490000>, <8,9,490000>, <10,9,490000>, <9,10,490000>};


RatePerQuality= [ 0  300  700  1500  2500  3500 ] ;


CacheSpacePerQuality= [ 10000  11.25  26.25  56.25  93.75  131.25 ] ;


UtilityPerQuality= [ 0  0.2  0.4  0.6  0.8  1 ] ;


ObjectsPublishedByProducers=[ [ 0  0  0  0  0  0  0  1  0  0  0 ]  [ 0  0  0  0  0  0  0  1  0  0  0 ]  [ 0  0  0  0  0  0  0  1  0  0  0 ]  [ 0  0  0  0  0  0  0  1  0  0  0 ]  [ 0  0  0  0  0  0  0  1  0  0  0 ]  [ 0  0  0  0  0  0  0  1  0  0  0 ]  [ 0  0  0  0  0  0  0  1  0  0  0 ]  [ 0  0  0  0  0  0  0  1  0  0  0 ]  [ 0  0  0  0  0  0  0  1  0  0  0 ]  [ 0  0  0  0  0  0  0  1  0  0  0 ]  [ 0  0  0  0  0  0  0  1  0  0  0 ]  [ 0  0  0  0  0  0  0  1  0  0  0 ]  [ 0  0  0  0  0  0  0  1  0  0  0 ]  [ 0  0  0  0  0  0  0  1  0  0  0 ]  [ 0  0  0  0  0  0  0  1  0  0  0 ]  [ 0  0  0  0  0  0  0  1  0  0  0 ]  [ 0  0  0  0  0  0  0  1  0  0  0 ]  [ 0  0  0  0  0  0  0  1  0  0  0 ]  [ 0  0  0  0  0  0  0  1  0  0  0 ]  [ 0  0  0  0  0  0  0  1  0  0  0 ]  [ 0  0  0  0  0  0  0  1  0  0  0 ]  [ 0  0  0  0  0  0  0  1  0  0  0 ]  [ 0  0  0  0  0  0  0  1  0  0  0 ]  [ 0  0  0  0  0  0  0  1  0  0  0 ]  [ 0  0  0  0  0  0  0  1  0  0  0 ]  [ 0  0  0  0  0  0  0  1  0  0  0 ]  [ 0  0  0  0  0  0  0  1  0  0  0 ]  [ 0  0  0  0  0  0  0  1  0  0  0 ]  [ 0  0  0  0  0  0  0  1  0  0  0 ]  [ 0  0  0  0  0  0  0  1  0  0  0 ]  [ 0  0  0  0  0  0  0  1  0  0  0 ]  [ 0  0  0  0  0  0  0  1  0  0  0 ]  [ 0  0  0  0  0  0  0  1  0  0  0 ]  [ 0  0  0  0  0  0  0  1  0  0  0 ]  [ 0  0  0  0  0  0  0  1  0  0  0 ]  [ 0  0  0  0  0  0  0  1  0  0  0 ]  [ 0  0  0  0  0  0  0  1  0  0  0 ]  [ 0  0  0  0  0  0  0  1  0  0  0 ]  [ 0  0  0  0  0  0  0  1  0  0  0 ]  [ 0  0  0  0  0  0  0  1  0  0  0 ]  [ 0  0  0  0  0  0  0  1  0  0  0 ]  [ 0  0  0  0  0  0  0  1  0  0  0 ]  [ 0  0  0  0  0  0  0  1  0  0  0 ]  [ 0  0  0  0  0  0  0  1  0  0  0 ]  [ 0  0  0  0  0  0  0  1  0  0  0 ]  [ 0  0  0  0  0  0  0  1  0  0  0 ]  [ 0  0  0  0  0  0  0  1  0  0  0 ]  [ 0  0  0  0  0  0  0  1  0  0  0 ]  [ 0  0  0  0  0  0  0  1  0  0  0 ]  [ 0  0  0  0  0  0  0  1  0  0  0 ]  [ 0  0  0  0  0  0  0  1  0  0  0 ]  [ 0  0  0  0  0  0  0  1  0  0  0 ]  [ 0  0  0  0  0  0  0  1  0  0  0 ]  [ 0  0  0  0  0  0  0  1  0  0  0 ]  [ 0  0  0  0  0  0  0  1  0  0  0 ]  [ 0  0  0  0  0  0  0  1  0  0  0 ]  [ 0  0  0  0  0  0  0  1  0  0  0 ]  [ 0  0  0  0  0  0  0  1  0  0  0 ]  [ 0  0  0  0  0  0  0  1  0  0  0 ]  [ 0  0  0  0  0  0  0  1  0  0  0 ]  [ 0  0  0  0  0  0  0  1  0  0  0 ]  [ 0  0  0  0  0  0  0  1  0  0  0 ]  [ 0  0  0  0  0  0  0  1  0  0  0 ]  [ 0  0  0  0  0  0  0  1  0  0  0 ]  [ 0  0  0  0  0  0  0  1  0  0  0 ]  [ 0  0  0  0  0  0  0  1  0  0  0 ]  [ 0  0  0  0  0  0  0  1  0  0  0 ]  [ 0  0  0  0  0  0  0  1  0  0  0 ]  [ 0  0  0  0  0  0  0  1  0  0  0 ]  [ 0  0  0  0  0  0  0  1  0  0  0 ]  [ 0  0  0  0  0  0  0  1  0  0  0 ]  [ 0  0  0  0  0  0  0  1  0  0  0 ]  [ 0  0  0  0  0  0  0  1  0  0  0 ]  [ 0  0  0  0  0  0  0  1  0  0  0 ]  [ 0  0  0  0  0  0  0  1  0  0  0 ]  [ 0  0  0  0  0  0  0  1  0  0  0 ]  [ 0  0  0  0  0  0  0  1  0  0  0 ]  [ 0  0  0  0  0  0  0  1  0  0  0 ]  [ 0  0  0  0  0  0  0  1  0  0  0 ]  [ 0  0  0  0  0  0  0  1  0  0  0 ]  [ 0  0  0  0  0  0  0  1  0  0  0 ]  [ 0  0  0  0  0  0  0  1  0  0  0 ]  [ 0  0  0  0  0  0  0  1  0  0  0 ]  [ 0  0  0  0  0  0  0  1  0  0  0 ]  [ 0  0  0  0  0  0  0  1  0  0  0 ]  [ 0  0  0  0  0  0  0  1  0  0  0 ]  [ 0  0  0  0  0  0  0  1  0  0  0 ]  [ 0  0  0  0  0  0  0  1  0  0  0 ]  [ 0  0  0  0  0  0  0  1  0  0  0 ]  [ 0  0  0  0  0  0  0  1  0  0  0 ]  [ 0  0  0  0  0  0  0  1  0  0  0 ]  [ 0  0  0  0  0  0  0  1  0  0  0 ]  [ 0  0  0  0  0  0  0  1  0  0  0 ]  [ 0  0  0  0  0  0  0  1  0  0  0 ]  [ 0  0  0  0  0  0  0  1  0  0  0 ]  [ 0  0  0  0  0  0  0  1  0  0  0 ]  [ 0  0  0  0  0  0  0  1  0  0  0 ]  [ 0  0  0  0  0  0  0  1  0  0  0 ]  [ 0  0  0  0  0  0  0  1  0  0  0 ]  [ 0  0  0  0  0  0  0  1  0  0  0 ] ];

ObjRequests = {  <1,5,793>, <2,5,49>, <3,5,140>, <4,5,65>, <5,5,143>, <6,5,26>, <7,5,24>, <8,5,107>, <9,5,3>, <10,5,43>, <11,5,52>, <12,5,3>, <13,5,24>, <14,5,5>, <15,5,2>, <16,5,19>, <17,5,13>, <18,5,15>, <19,5,47>, <20,5,26>, <21,5,1>, <22,5,29>, <23,5,44>, <24,5,15>, <25,5,27>, <26,5,6>, <27,5,6>, <28,5,10>, <29,5,1>, <30,5,1>, <31,5,4>, <32,5,5>, <33,5,5>, <34,5,18>, <35,5,10>, <36,5,14>, <37,5,24>, <38,5,10>, <39,5,9>, <40,5,9>, <41,5,21>, <42,5,11>, <43,5,1>, <45,5,2>, <46,5,2>, <47,5,17>, <48,5,3>, <49,5,1>, <50,5,10>, <51,5,3>, <52,5,16>, <53,5,7>, <54,5,4>, <55,5,22>, <56,5,12>, <57,5,7>, <58,5,5>, <59,5,12>, <60,5,1>, <61,5,4>, <62,5,1>, <63,5,11>, <64,5,2>, <65,5,5>, <66,5,7>, <67,5,16>, <68,5,4>, <69,5,12>, <70,5,1>, <71,5,2>, <72,5,1>, <73,5,2>, <74,5,6>, <75,5,1>, <76,5,1>, <77,5,4>, <78,5,8>, <79,5,1>, <80,5,2>, <81,5,2>, <82,5,11>, <83,5,6>, <84,5,2>, <85,5,5>, <86,5,4>, <87,5,2>, <88,5,1>, <89,5,5>, <90,5,3>, <91,5,2>, <92,5,4>, <93,5,4>, <95,5,3>, <96,5,1>, <100,5,2>, <1,6,26>, <2,6,118>, <3,6,166>, <4,6,40>, <5,6,18>, <6,6,66>, <7,6,11>, <8,6,21>, <9,6,38>, <10,6,22>, <11,6,45>, <12,6,39>, <13,6,3>, <14,6,3>, <15,6,70>, <16,6,35>, <17,6,5>, <18,6,2>, <19,6,7>, <20,6,12>, <21,6,19>, <22,6,19>, <23,6,3>, <24,6,24>, <25,6,3>, <26,6,11>, <27,6,12>, <28,6,2>, <29,6,23>, <30,6,5>, <31,6,4>, <32,6,5>, <33,6,28>, <34,6,10>, <35,6,16>, <36,6,6>, <37,6,1>, <38,6,4>, <39,6,5>, <40,6,5>, <41,6,3>, <42,6,19>, <43,6,20>, <44,6,8>, <45,6,2>, <46,6,10>, <47,6,7>, <49,6,11>, <50,6,2>, <51,6,3>, <52,6,2>, <53,6,6>, <54,6,6>, <55,6,2>, <56,6,1>, <58,6,4>, <59,6,1>, <60,6,17>, <61,6,12>, <62,6,14>, <63,6,1>, <64,6,1>, <65,6,3>, <66,6,9>, <67,6,3>, <68,6,10>, <69,6,2>, <70,6,4>, <71,6,8>, <72,6,2>, <73,6,6>, <74,6,2>, <75,6,3>, <76,6,3>, <77,6,6>, <78,6,1>, <79,6,11>, <80,6,1>, <82,6,1>, <83,6,1>, <84,6,2>, <85,6,4>, <86,6,2>, <87,6,10>, <88,6,2>, <89,6,6>, <90,6,5>, <91,6,3>, <92,6,3>, <93,6,1>, <94,6,7>, <95,6,3>, <97,6,7>, <98,6,3>, <99,6,3>, <100,6,2>, <1,7,44>, <2,7,406>, <3,7,31>, <4,7,137>, <5,7,42>, <6,7,15>, <7,7,36>, <8,7,40>, <9,7,18>, <10,7,77>, <11,7,11>, <12,7,29>, <13,7,66>, <14,7,8>, <15,7,12>, <16,7,9>, <17,7,13>, <18,7,10>, <19,7,22>, <20,7,33>, <21,7,47>, <22,7,17>, <23,7,21>, <24,7,9>, <25,7,7>, <26,7,21>, <27,7,24>, <28,7,35>, <29,7,8>, <30,7,19>, <31,7,8>, <32,7,27>, <33,7,2>, <34,7,4>, <35,7,5>, <36,7,1>, <37,7,5>, <38,7,6>, <39,7,13>, <40,7,19>, <41,7,5>, <42,7,1>, <43,7,4>, <44,7,3>, <45,7,2>, <46,7,9>, <47,7,6>, <48,7,3>, <49,7,13>, <50,7,5>, <51,7,1>, <52,7,8>, <53,7,9>, <54,7,16>, <55,7,1>, <56,7,8>, <57,7,5>, <58,7,5>, <59,7,7>, <60,7,1>, <61,7,5>, <62,7,3>, <63,7,5>, <64,7,23>, <65,7,2>, <66,7,5>, <68,7,5>, <69,7,4>, <71,7,3>, <72,7,4>, <74,7,8>, <75,7,2>, <76,7,3>, <78,7,1>, <79,7,4>, <80,7,1>, <81,7,4>, <82,7,1>, <83,7,6>, <84,7,7>, <85,7,4>, <86,7,9>, <87,7,5>, <88,7,7>, <89,7,8>, <90,7,2>, <91,7,1>, <93,7,4>, <94,7,2>, <95,7,4>, <96,7,2>, <98,7,13>, <99,7,1>, <1,1,571>, <2,1,139>, <3,1,38>, <4,1,70>, <5,1,100>, <6,1,13>, <7,1,95>, <8,1,14>, <9,1,5>, <10,1,2>, <11,1,7>, <12,1,7>, <13,1,14>, <14,1,80>, <15,1,10>, <16,1,3>, <17,1,3>, <18,1,31>, <19,1,6>, <20,1,3>, <21,1,7>, <22,1,17>, <23,1,2>, <24,1,6>, <25,1,4>, <26,1,10>, <27,1,14>, <28,1,5>, <29,1,11>, <30,1,5>, <31,1,14>, <32,1,12>, <33,1,11>, <34,1,3>, <35,1,6>, <37,1,5>, <38,1,4>, <39,1,13>, <40,1,1>, <41,1,3>, <42,1,5>, <43,1,1>, <44,1,20>, <45,1,11>, <46,1,5>, <47,1,5>, <48,1,9>, <49,1,1>, <50,1,5>, <51,1,2>, <52,1,11>, <53,1,1>, <54,1,4>, <55,1,1>, <56,1,7>, <57,1,12>, <58,1,2>, <59,1,3>, <60,1,7>, <61,1,2>, <62,1,10>, <63,1,3>, <64,1,2>, <65,1,9>, <66,1,5>, <67,1,6>, <68,1,1>, <69,1,2>, <70,1,3>, <72,1,3>, <74,1,5>, <75,1,1>, <76,1,1>, <77,1,13>, <78,1,3>, <79,1,7>, <80,1,11>, <81,1,4>, <82,1,7>, <83,1,1>, <84,1,2>, <85,1,4>, <86,1,3>, <87,1,3>, <89,1,1>, <90,1,3>, <91,1,7>, <92,1,4>, <93,1,3>, <95,1,5>, <96,1,3>, <97,1,7>, <99,1,4>, <100,1,5>, <1,10,170>, <2,10,81>, <3,10,133>, <4,10,50>, <6,10,147>, <7,10,39>, <8,10,5>, <9,10,104>, <10,10,15>, <11,10,26>, <12,10,73>, <13,10,19>, <14,10,15>, <15,10,29>, <16,10,13>, <17,10,59>, <18,10,32>, <19,10,3>, <20,10,15>, <21,10,2>, <22,10,4>, <23,10,2>, <24,10,11>, <25,10,24>, <26,10,9>, <27,10,3>, <28,10,9>, <29,10,7>, <30,10,16>, <31,10,13>, <32,10,1>, <33,10,2>, <34,10,5>, <35,10,5>, <36,10,26>, <37,10,2>, <38,10,11>, <40,10,1>, <41,10,2>, <42,10,10>, <43,10,9>, <44,10,2>, <45,10,28>, <46,10,5>, <47,10,1>, <48,10,28>, <49,10,9>, <50,10,16>, <51,10,25>, <53,10,2>, <54,10,3>, <55,10,2>, <56,10,1>, <57,10,3>, <58,10,8>, <59,10,4>, <60,10,6>, <61,10,3>, <63,10,7>, <65,10,7>, <66,10,4>, <67,10,5>, <68,10,5>, <69,10,17>, <70,10,6>, <71,10,5>, <72,10,4>, <73,10,13>, <74,10,1>, <75,10,8>, <76,10,2>, <77,10,1>, <78,10,7>, <79,10,5>, <80,10,1>, <81,10,7>, <82,10,3>, <83,10,3>, <84,10,1>, <86,10,4>, <88,10,9>, <90,10,4>, <91,10,2>, <92,10,2>, <94,10,3>, <95,10,6>, <96,10,19>, <97,10,4>, <99,10,6>, <100,10,2> };

MaxCacheStorageAtSingleAS= [ 131.25  131.25  131.25  131.25  131.25  131.25  131.25  131.25  131.25  131.25  131.25 ] ;

MaxCacheStorage = 1443.75 ;
SolutionGap = 0.01 ;
